Normalized Data/p01_18_normalized_split0.vrp
NAME:p01_18_NORMALIZED_split
BEST_KNOWN: 0
COMMENT: 0
DIMENSION: 177
CAPACITY: 100
EDGE_WEIGHT_FORMAT: FUNCTION
EDGE_WEIGHT_TYPE: EXACT_2D
NODE_COORD_SECTION
1 0.00000 0.00000
2 41 19
3 41 19
4 -2 -12
5 -2 -12
6 -2 -12
7 0 11
8 0 11
9 0 11
10 16 18
11 16 18
12 16 18
13 16 18
14 16 18
15 -25 -43
16 -25 -43
17 -25 -43
18 44 -15
19 44 -15
20 16 -7
21 16 -7
22 16 -7
23 16 -7
24 16 -7
25 -47 -31
26 -47 -31
27 -7 -35
28 -7 -35
29 -7 -35
30 -7 -35
31 -7 -35
32 -7 -35
33 -32 -38
34 -32 -38
35 22 33
36 22 33
37 22 33
38 24 -27
39 24 -27
40 24 -27
41 24 -27
42 -18 -8
43 -18 -8
44 -18 -8
45 15 -28
46 15 -28
47 15 -28
48 15 -28
49 15 -28
50 -38 -20
51 -38 -20
52 -38 -20
53 4 43
54 4 43
55 14 -43
56 14 -43
57 14 -43
58 -30 19
59 -30 19
60 -30 19
61 -30 19
62 -30 19
63 -47 48
64 -47 48
65 -47 48
66 34 -3
67 34 -3
68 34 -3
69 -37 -6
70 -37 -6
71 -37 -6
72 -37 -6
73 -38 42
74 20 -9
75 20 -9
76 27 46
77 27 46
78 27 46
79 27 46
80 27 46
81 -12 -40
82 -12 -40
83 13 -16
84 13 -16
85 13 -16
86 13 -16
87 13 -16
88 13 -16
89 -28 38
90 -28 38
91 -28 38
92 -28 38
93 -23 -44
94 -23 -44
95 -23 -44
96 -23 -44
97 -29 -25
98 -29 -25
99 -29 -25
100 -29 -25
101 -1 4
102 -1 4
103 -1 4
104 -1 4
105 -1 4
106 9 0
107 9 0
108 -19 -17
109 -19 -17
110 -1 50
111 -1 50
112 -1 50
113 -1 50
114 -17 13
115 -17 13
116 -17 13
117 -17 13
118 -17 13
119 -17 13
120 -48 28
121 -48 28
122 -26 -11
123 -26 -11
124 -26 -11
125 26 42
126 26 42
127 26 42
128 26 42
129 26 42
130 -48 23
131 -48 23
132 -48 23
133 -8 37
134 -8 37
135 -8 37
136 -8 37
137 34 -45
138 34 -45
139 34 -45
140 -8 -16
141 -8 -16
142 -8 -16
143 17 -6
144 17 -6
145 17 -6
146 17 -6
147 17 -6
148 5 -17
149 5 -17
150 5 -17
151 5 -17
152 34 47
153 34 47
154 34 47
155 26 -24
156 26 -24
157 26 -24
158 -9 -25
159 -9 -25
160 -9 -25
161 -9 -25
162 -9 -25
163 -37 30
164 -37 30
165 -37 30
166 -37 30
167 -37 30
168 40 39
169 40 39
170 37 -45
171 37 -45
172 37 -45
173 37 -45
174 39 -20
175 39 -20
176 39 -20
177 39 -20
DEMAND_SECTION
1 0
2 20
3 1
4 20
5 10
6 5
7 20
8 10
9 1
10 20
11 20
12 1
13 1
14 1
15 20
16 10
17 1
18 20
19 5
20 20
21 5
22 1
23 1
24 1
25 20
26 20
27 10
28 5
29 1
30 1
31 1
32 1
33 10
34 5
35 20
36 20
37 10
38 20
39 10
40 5
41 1
42 10
43 5
44 1
45 20
46 5
47 1
48 1
49 1
50 10
51 5
52 1
53 20
54 5
55 20
56 10
57 1
58 10
59 5
60 1
61 1
62 1
63 20
64 20
65 1
66 10
67 1
68 1
69 20
70 10
71 5
72 1
73 20
74 20
75 10
76 20
77 20
78 1
79 1
80 1
81 20
82 10
83 20
84 10
85 5
86 1
87 1
88 1
89 20
90 20
91 5
92 1
93 20
94 20
95 5
96 1
97 20
98 1
99 1
100 1
101 20
102 10
103 5
104 1
105 1
106 20
107 10
108 20
109 10
110 20
111 20
112 1
113 1
114 20
115 10
116 5
117 1
118 1
119 1
120 20
121 20
122 20
123 5
124 1
125 20
126 5
127 1
128 1
129 1
130 10
131 5
132 1
133 20
134 10
135 1
136 1
137 10
138 5
139 1
140 20
141 20
142 1
143 20
144 5
145 1
146 1
147 1
148 20
149 10
150 5
151 1
152 20
153 10
154 1
155 20
156 20
157 10
158 20
159 20
160 1
161 1
162 1
163 20
164 1
165 1
166 1
167 1
168 20
169 20
170 20
171 1
172 1
173 1
174 20
175 10
176 5
177 1
DEPOT_SECTION
1
-1
EOF