Normalized Data/p01_18_normalized_split0.sol
176 -2 1 67 65 66 17 18 175 176 173 174 -3 4 140 139 108 107 -5 29 30 31 28 27 26 81 80 157 158 160 159 161 -8 52 53 110 112 109 111 132 133 135 134 -11 12 9 10 13 6 7 102 104 103 100 -20 22 21 23 19 144 143 146 142 145 105 106 101 -33 32 16 15 14 95 92 94 93 141 -36 34 35 126 128 78 77 79 76 75 -41 43 42 122 51 49 50 25 24 96 99 97 98 -46 45 47 44 48 170 172 171 169 138 137 136 54 55 56 -60 61 129 131 130 120 119 164 91 89 88 -74 73 83 86 82 149 148 147 150 -87 84 85 37 39 38 40 156 154 155 -90 72 64 63 62 165 163 166 162 117 114 -113 115 118 116 57 59 58 68 70 69 71 121 123 -124 125 127 151 153 152 168 167 0 





OBJ=
1561.955
BEST_KNOWN=
0.000